HUN,8,6,865
3,90,1,45,0,43,2,80,4,62,5,8
3,8,5,51,2,55,1,34,0,43,4,92
3,75,0,88,1,81,4,41,5,2,2,57
4,10,0,16,1,80,3,13,5,41,2,73
3,79,0,39,1,40,2,82,5,54,4,5
1,45,4,79,5,22,0,88,3,17,2,92
4,32,2,46,5,95,0,86,3,14,1,96
5,62,1,68,3,51,0,25,2,36,4,7
